100
32
31
20
2
12
27
3
3
12
10
14
22
1
11
7
12
19
2
5
16
2
1
2
2
6
17
4
1
2
3
1
1
2
17
3
3
2
3
2
3
1
3
2
3
1
17
1
1
4
3
1
17
3
1
1
2
7
2
2
4
17
1
3
1
1
1
1
2
2
1
17
1
17
2
1
1
5
2
2
6
20
6
1
18
2
1
5
5
1
1
1
1
1
2
2
2
1
2
1
20
12